(set-logic QF_NRA)
(declare-fun skoC () Real)
(declare-fun skoS () Real)
(declare-fun skoX () Real)
(assert (and (not (<= (* (- 3) skoX) 12500)) (not (<= (+ (* (- 1770) skoC) (* 689 skoS)) 0))))
(set-info :status sat)
(check-sat)
